\* Source Pyomo model name=LP-Model *\

max 
x1:
+10 x2
+25 x3
+8 x4
+18 x5
+40 x6
+290 x7
+10 x8
+25 x9
+8 x10
+18 x11
+40 x12
+290 x13
+12 x14
+30 x15
+10 x16
+22 x17
+45 x18
+310 x19
+10 x20
+25 x21
+8 x22
+18 x23
+40 x24
+290 x25
+10 x26
+25 x27
+8 x28
+18 x29
+40 x30
+290 x31
+12 x32
+30 x33
+10 x34
+22 x35
+45 x36
+310 x37
-6 x38
-19 x39
-4 x40
-10 x41
-26 x42
-178 x43
-5 x44
-18 x45
-5 x46
-11 x47
-24 x48
-175 x49
-7 x50
-20 x51
-5 x52
-12 x53
-27 x54
-180 x55
-6.720000000000001 x56
-21.28 x57
-4.48 x58
-11.200000000000001 x59
-29.120000000000005 x60
-199.36 x61
-5.6000000000000005 x62
-20.160000000000004 x63
-5.6000000000000005 x64
-12.32 x65
-26.880000000000003 x66
-196.00000000000003 x67
-7.840000000000001 x68
-22.400000000000002 x69
-5.6000000000000005 x70
-13.440000000000001 x71
-30.240000000000002 x72
-201.60000000000002 x73
-0.48 x74
-1.52 x75
-0.32 x76
-0.8 x77
-2.08 x78
-14.24 x79
-0.4 x80
-1.44 x81
-0.4 x82
-0.88 x83
-1.92 x84
-14.0 x85
-0.56 x86
-1.6 x87
-0.4 x88
-0.96 x89
-2.16 x90
-14.4 x91
-0.5376000000000001 x92
-1.7024000000000001 x93
-0.35840000000000005 x94
-0.8960000000000001 x95
-2.3296000000000006 x96
-15.948800000000002 x97
-0.44800000000000006 x98
-1.6128000000000002 x99
-0.44800000000000006 x100
-0.9856 x101
-2.1504000000000003 x102
-15.680000000000003 x103
-0.6272000000000001 x104
-1.7920000000000003 x105
-0.44800000000000006 x106
-1.0752000000000002 x107
-2.4192 x108
-16.128000000000004 x109

s.t.

c_e_x110_:
-1 x38
-13 x43
+1 x111
= 0

c_e_x112_:
-1 x56
-13 x61
+1 x113
= 0

c_e_x114_:
-1 x44
-13 x49
+1 x115
= 0

c_e_x116_:
-1 x62
-13 x67
+1 x117
= 0

c_e_x118_:
-1 x50
-13 x55
+1 x119
= 0

c_e_x120_:
-1 x68
-13 x73
+1 x121
= 0

c_e_x122_:
-1 x39
-13 x43
+1 x123
= 0

c_e_x124_:
-1 x57
-13 x61
+1 x125
= 0

c_e_x126_:
-1 x45
-13 x49
+1 x127
= 0

c_e_x128_:
-1 x63
-13 x67
+1 x129
= 0

c_e_x130_:
-1 x51
-13 x55
+1 x131
= 0

c_e_x132_:
-1 x69
-13 x73
+1 x133
= 0

c_e_x134_:
-1 x40
-10 x43
+1 x135
= 0

c_e_x136_:
-1 x58
-10 x61
+1 x137
= 0

c_e_x138_:
-1 x46
-10 x49
+1 x139
= 0

c_e_x140_:
-1 x64
-10 x67
+1 x141
= 0

c_e_x142_:
-1 x52
-10 x55
+1 x143
= 0

c_e_x144_:
-1 x70
-10 x73
+1 x145
= 0

c_e_x146_:
-1 x41
-3 x43
+1 x147
= 0

c_e_x148_:
-1 x59
-3 x61
+1 x149
= 0

c_e_x150_:
-1 x47
-3 x49
+1 x151
= 0

c_e_x152_:
-1 x65
-3 x67
+1 x153
= 0

c_e_x154_:
-1 x53
-3 x55
+1 x155
= 0

c_e_x156_:
-1 x71
-3 x73
+1 x157
= 0

c_e_x158_:
-1 x42
-3 x43
+1 x159
= 0

c_e_x160_:
-1 x60
-3 x61
+1 x161
= 0

c_e_x162_:
-1 x48
-3 x49
+1 x163
= 0

c_e_x164_:
-1 x66
-3 x67
+1 x165
= 0

c_e_x166_:
-1 x54
-3 x55
+1 x167
= 0

c_e_x168_:
-1 x72
-3 x73
+1 x169
= 0

c_e_x170_:
-1 x2
+1 x38
-1 x74
= 0

c_e_x171_:
-1 x3
+1 x39
-1 x75
= 0

c_e_x172_:
-1 x4
+1 x40
-1 x76
= 0

c_e_x173_:
-1 x5
+1 x41
-1 x77
= 0

c_e_x174_:
-1 x6
+1 x42
-1 x78
= 0

c_e_x175_:
-1 x7
+1 x43
-1 x79
= 0

c_e_x176_:
-1 x8
+1 x44
-1 x80
= 0

c_e_x177_:
-1 x9
+1 x45
-1 x81
= 0

c_e_x178_:
-1 x10
+1 x46
-1 x82
= 0

c_e_x179_:
-1 x11
+1 x47
-1 x83
= 0

c_e_x180_:
-1 x12
+1 x48
-1 x84
= 0

c_e_x181_:
-1 x13
+1 x49
-1 x85
= 0

c_e_x182_:
-1 x14
+1 x50
-1 x86
= 0

c_e_x183_:
-1 x15
+1 x51
-1 x87
= 0

c_e_x184_:
-1 x16
+1 x52
-1 x88
= 0

c_e_x185_:
-1 x17
+1 x53
-1 x89
= 0

c_e_x186_:
-1 x18
+1 x54
-1 x90
= 0

c_e_x187_:
-1 x19
+1 x55
-1 x91
= 0

c_e_x188_:
-1 x20
+1 x56
+1 x74
-1 x92
= 0

c_e_x189_:
-1 x21
+1 x57
+1 x75
-1 x93
= 0

c_e_x190_:
-1 x22
+1 x58
+1 x76
-1 x94
= 0

c_e_x191_:
-1 x23
+1 x59
+1 x77
-1 x95
= 0

c_e_x192_:
-1 x24
+1 x60
+1 x78
-1 x96
= 0

c_e_x193_:
-1 x25
+1 x61
+1 x79
-1 x97
= 0

c_e_x194_:
-1 x26
+1 x62
+1 x80
-1 x98
= 0

c_e_x195_:
-1 x27
+1 x63
+1 x81
-1 x99
= 0

c_e_x196_:
-1 x28
+1 x64
+1 x82
-1 x100
= 0

c_e_x197_:
-1 x29
+1 x65
+1 x83
-1 x101
= 0

c_e_x198_:
-1 x30
+1 x66
+1 x84
-1 x102
= 0

c_e_x199_:
-1 x31
+1 x67
+1 x85
-1 x103
= 0

c_e_x200_:
-1 x32
+1 x68
+1 x86
-1 x104
= 0

c_e_x201_:
-1 x33
+1 x69
+1 x87
-1 x105
= 0

c_e_x202_:
-1 x34
+1 x70
+1 x88
-1 x106
= 0

c_e_x203_:
-1 x35
+1 x71
+1 x89
-1 x107
= 0

c_e_x204_:
-1 x36
+1 x72
+1 x90
-1 x108
= 0

c_e_x205_:
-1 x37
+1 x73
+1 x91
-1 x109
= 0

c_u_x206_:
+1 x111
+1.5 x123
+1.5 x135
+3 x147
+4 x159
<= 12000

c_u_x207_:
+3.5 x115
+3.5 x127
+4.5 x139
+4.5 x151
+5 x163
<= 15000

c_u_x208_:
+3 x119
+3.5 x131
+4 x143
+4.5 x155
+5.5 x167
<= 22000

c_u_x209_:
+1 x113
+1.5 x125
+1.5 x137
+3 x149
+4 x161
<= 12000

c_u_x210_:
+3.5 x117
+3.5 x129
+4.5 x141
+4.5 x153
+5 x165
<= 15000

c_u_x211_:
+3 x121
+3.5 x133
+4 x145
+4.5 x157
+5.5 x169
<= 22000

c_u_x212_:
+4 x111
+4 x123
+5 x135
+6 x147
+6 x159
<= 20000

c_u_x213_:
+7 x115
+7 x127
+8 x139
+9 x151
+7 x163
<= 40000

c_u_x214_:
+7.5 x119
+7.5 x131
+8.5 x143
+8.5 x155
+8 x167
<= 35000

c_u_x215_:
+4 x113
+4 x125
+5 x137
+6 x149
+6 x161
<= 20000

c_u_x216_:
+7 x117
+7 x129
+8 x141
+9 x153
+7 x165
<= 40000

c_u_x217_:
+7.5 x121
+7.5 x133
+8.5 x145
+8.5 x157
+8 x169
<= 35000

c_u_x218_:
+65 x43
<= 5500

c_u_x219_:
+60 x49
<= 5000

c_u_x220_:
+65 x55
<= 6000

c_u_x221_:
+65 x61
<= 5500

c_u_x222_:
+60 x67
<= 5000

c_u_x223_:
+65 x73
<= 6000

c_u_x224_:
+0.25 x123
+0.25 x127
+0.25 x131
<= 1000

c_u_x225_:
+0.25 x125
+0.25 x129
+0.25 x133
<= 1000

c_l_x226_:
+1 x2
>= 0

c_l_x227_:
+1 x3
>= 100

c_l_x228_:
+1 x4
>= 200

c_l_x229_:
+1 x5
>= 30

c_l_x230_:
+1 x6
>= 100

c_l_x231_:
+1 x7
>= 0

c_l_x232_:
+1 x8
>= 0

c_l_x233_:
+1 x9
>= 100

c_l_x234_:
+1 x10
>= 200

c_l_x235_:
+1 x11
>= 30

c_l_x236_:
+1 x12
>= 100

c_l_x237_:
+1 x13
>= 0

c_l_x238_:
+1 x14
>= 0

c_l_x239_:
+1 x15
>= 50

c_l_x240_:
+1 x16
>= 100

c_l_x241_:
+1 x17
>= 15

c_l_x242_:
+1 x18
>= 100

c_l_x243_:
+1 x19
>= 0

c_l_x244_:
+1 x20
>= 0

c_l_x245_:
+1 x21
>= 100

c_l_x246_:
+1 x22
>= 200

c_l_x247_:
+1 x23
>= 30

c_l_x248_:
+1 x24
>= 100

c_l_x249_:
+1 x25
>= 0

c_l_x250_:
+1 x26
>= 0

c_l_x251_:
+1 x27
>= 100

c_l_x252_:
+1 x28
>= 200

c_l_x253_:
+1 x29
>= 30

c_l_x254_:
+1 x30
>= 100

c_l_x255_:
+1 x31
>= 0

c_l_x256_:
+1 x32
>= 0

c_l_x257_:
+1 x33
>= 50

c_l_x258_:
+1 x34
>= 100

c_l_x259_:
+1 x35
>= 15

c_l_x260_:
+1 x36
>= 100

c_l_x261_:
+1 x37
>= 0

c_u_x262_:
+1 x2
<= 2000

c_u_x263_:
+1 x3
<= 2000

c_u_x264_:
+1 x4
<= 2000

c_u_x265_:
+1 x5
<= 2000

c_u_x266_:
+1 x6
<= 2000

c_u_x267_:
+1 x7
<= 200

c_u_x268_:
+1 x8
<= 2000

c_u_x269_:
+1 x9
<= 2000

c_u_x270_:
+1 x10
<= 2000

c_u_x271_:
+1 x11
<= 2000

c_u_x272_:
+1 x12
<= 2000

c_u_x273_:
+1 x13
<= 200

c_u_x274_:
+1 x14
<= 2000

c_u_x275_:
+1 x15
<= 2000

c_u_x276_:
+1 x16
<= 2000

c_u_x277_:
+1 x17
<= 2000

c_u_x278_:
+1 x18
<= 2000

c_u_x279_:
+1 x19
<= 200

c_u_x280_:
+1 x20
<= 2000

c_u_x281_:
+1 x21
<= 2000

c_u_x282_:
+1 x22
<= 2000

c_u_x283_:
+1 x23
<= 2000

c_u_x284_:
+1 x24
<= 2000

c_u_x285_:
+1 x25
<= 200

c_u_x286_:
+1 x26
<= 2000

c_u_x287_:
+1 x27
<= 2000

c_u_x288_:
+1 x28
<= 2000

c_u_x289_:
+1 x29
<= 2000

c_u_x290_:
+1 x30
<= 2000

c_u_x291_:
+1 x31
<= 200

c_u_x292_:
+1 x32
<= 2000

c_u_x293_:
+1 x33
<= 2000

c_u_x294_:
+1 x34
<= 2000

c_u_x295_:
+1 x35
<= 2000

c_u_x296_:
+1 x36
<= 2000

c_u_x297_:
+1 x37
<= 200

bounds
   0 <= x2 <= +inf
   0 <= x3 <= +inf
   0 <= x4 <= +inf
   0 <= x5 <= +inf
   0 <= x6 <= +inf
   0 <= x7 <= +inf
   0 <= x8 <= +inf
   0 <= x9 <= +inf
   0 <= x10 <= +inf
   0 <= x11 <= +inf
   0 <= x12 <= +inf
   0 <= x13 <= +inf
   0 <= x14 <= +inf
   0 <= x15 <= +inf
   0 <= x16 <= +inf
   0 <= x17 <= +inf
   0 <= x18 <= +inf
   0 <= x19 <= +inf
   0 <= x20 <= +inf
   0 <= x21 <= +inf
   0 <= x22 <= +inf
   0 <= x23 <= +inf
   0 <= x24 <= +inf
   0 <= x25 <= +inf
   0 <= x26 <= +inf
   0 <= x27 <= +inf
   0 <= x28 <= +inf
   0 <= x29 <= +inf
   0 <= x30 <= +inf
   0 <= x31 <= +inf
   0 <= x32 <= +inf
   0 <= x33 <= +inf
   0 <= x34 <= +inf
   0 <= x35 <= +inf
   0 <= x36 <= +inf
   0 <= x37 <= +inf
   0 <= x38 <= +inf
   0 <= x39 <= +inf
   0 <= x40 <= +inf
   0 <= x41 <= +inf
   0 <= x42 <= +inf
   0 <= x43 <= +inf
   0 <= x44 <= +inf
   0 <= x45 <= +inf
   0 <= x46 <= +inf
   0 <= x47 <= +inf
   0 <= x48 <= +inf
   0 <= x49 <= +inf
   0 <= x50 <= +inf
   0 <= x51 <= +inf
   0 <= x52 <= +inf
   0 <= x53 <= +inf
   0 <= x54 <= +inf
   0 <= x55 <= +inf
   0 <= x56 <= +inf
   0 <= x57 <= +inf
   0 <= x58 <= +inf
   0 <= x59 <= +inf
   0 <= x60 <= +inf
   0 <= x61 <= +inf
   0 <= x62 <= +inf
   0 <= x63 <= +inf
   0 <= x64 <= +inf
   0 <= x65 <= +inf
   0 <= x66 <= +inf
   0 <= x67 <= +inf
   0 <= x68 <= +inf
   0 <= x69 <= +inf
   0 <= x70 <= +inf
   0 <= x71 <= +inf
   0 <= x72 <= +inf
   0 <= x73 <= +inf
   0 <= x74 <= +inf
   0 <= x75 <= +inf
   0 <= x76 <= +inf
   0 <= x77 <= +inf
   0 <= x78 <= +inf
   0 <= x79 <= +inf
   0 <= x80 <= +inf
   0 <= x81 <= +inf
   0 <= x82 <= +inf
   0 <= x83 <= +inf
   0 <= x84 <= +inf
   0 <= x85 <= +inf
   0 <= x86 <= +inf
   0 <= x87 <= +inf
   0 <= x88 <= +inf
   0 <= x89 <= +inf
   0 <= x90 <= +inf
   0 <= x91 <= +inf
   0 <= x92 <= +inf
   0 <= x93 <= +inf
   0 <= x94 <= +inf
   0 <= x95 <= +inf
   0 <= x96 <= +inf
   0 <= x97 <= +inf
   0 <= x98 <= +inf
   0 <= x99 <= +inf
   0 <= x100 <= +inf
   0 <= x101 <= +inf
   0 <= x102 <= +inf
   0 <= x103 <= +inf
   0 <= x104 <= +inf
   0 <= x105 <= +inf
   0 <= x106 <= +inf
   0 <= x107 <= +inf
   0 <= x108 <= +inf
   0 <= x109 <= +inf
   0 <= x111 <= +inf
   0 <= x123 <= +inf
   0 <= x135 <= +inf
   0 <= x147 <= +inf
   0 <= x159 <= +inf
   0 <= x115 <= +inf
   0 <= x127 <= +inf
   0 <= x139 <= +inf
   0 <= x151 <= +inf
   0 <= x163 <= +inf
   0 <= x119 <= +inf
   0 <= x131 <= +inf
   0 <= x143 <= +inf
   0 <= x155 <= +inf
   0 <= x167 <= +inf
   0 <= x113 <= +inf
   0 <= x125 <= +inf
   0 <= x137 <= +inf
   0 <= x149 <= +inf
   0 <= x161 <= +inf
   0 <= x117 <= +inf
   0 <= x129 <= +inf
   0 <= x141 <= +inf
   0 <= x153 <= +inf
   0 <= x165 <= +inf
   0 <= x121 <= +inf
   0 <= x133 <= +inf
   0 <= x145 <= +inf
   0 <= x157 <= +inf
   0 <= x169 <= +inf
end
